NAME: random-13-6126
TYPE: TSP
COMMENT: size=13 seed=6126
DIMENSION: 28
EDGE_WEIGHT_TYPE: EUC_2D
NODE_COORD_SECTION
+0 682 539
-0 682 539
+1 19 645
-1 208 402
+2 131 259
-2 637 683
+3 762 775
-3 793 510
+4 385 445
-4 684 489
+5 799 365
-5 958 529
+6 159 689
-6 213 793
+7 260 345
-7 550 233
+8 783 12
-8 737 288
+9 229 223
-9 17 460
+10 931 379
-10 249 431
+11 933 955
-11 485 373
+12 954 551
-12 461 156
+13 176 396
-13 768 800
PRECEDENCE_SECTION
+0 -0
+1 -1
+2 -2
+3 -3
+4 -4
+5 -5
+6 -6
+7 -7
+8 -8
+9 -9
+10 -10
+11 -11
+12 -12
+13 -13
EOF
